
Gurobi 9.1.2 (win64, Java) logging started Fri Nov 12 00:57:17 2021

Academic license - for non-commercial use only - expires 2022-10-30
Gurobi Optimizer version 9.1.2 build v9.1.2rc0 (win64)
Thread count: 6 physical cores, 12 logical processors, using up to 12 threads
Optimize a model with 50 rows, 400 columns and 800 nonzeros
Model fingerprint: 0x24a6fa14
Variable types: 0 continuous, 400 integer (400 binary)
Coefficient statistics:
  Matrix range     [1e+00, 1e+03]
  Objective range  [4e+01, 9e+02]
  Bounds range     [1e+00, 1e+00]
  RHS range        [1e+00, 2e+03]
Found heuristic solution: objective 11127.000000
Presolve removed 0 rows and 107 columns
Presolve time: 0.00s
Presolved: 50 rows, 293 columns, 586 nonzeros
Variable types: 0 continuous, 293 integer (293 binary)
Presolved: 50 rows, 293 columns, 586 nonzeros


Root relaxation: objective 1.276467e+04, 126 iterations, 0.00 seconds

    Nodes    |    Current Node    |     Objective Bounds      |     Work
 Expl Unexpl |  Obj  Depth IntInf | Incumbent    BestBd   Gap | It/Node Time

     0     0 12764.6654    0   15 11127.0000 12764.6654  14.7%     -    0s
H    0     0                    12114.000000 12764.6654  5.37%     -    0s
H    0     0                    12140.000000 12764.6654  5.15%     -    0s
     0     0 12722.4223    0   24 12140.0000 12722.4223  4.80%     -    0s
H    0     0                    12272.000000 12722.4223  3.67%     -    0s
H    0     0                    12456.000000 12722.4223  2.14%     -    0s
     0     0 12722.4223    0   37 12456.0000 12722.4223  2.14%     -    0s
     0     0 12715.2850    0   40 12456.0000 12715.2850  2.08%     -    0s
     0     0 12715.1499    0   44 12456.0000 12715.1499  2.08%     -    0s
     0     0 12715.1499    0   38 12456.0000 12715.1499  2.08%     -    0s
     0     0 12715.0732    0   39 12456.0000 12715.0732  2.08%     -    0s
     0     0 12715.0732    0   39 12456.0000 12715.0732  2.08%     -    0s
     0     2 12715.0732    0   33 12456.0000 12715.0732  2.08%     -    0s
H   77    86                    12503.000000 12712.5229  1.68%  30.0    0s
H  127   158                    12541.000000 12712.5229  1.37%  24.6    0s
H  541   592                    12546.000000 12712.0968  1.32%  14.8    0s
H  939   655                    12644.000000 12711.7270  0.54%  13.8    0s
H 1421   816                    12682.000000 12689.3753  0.06%  19.2    2s

Cutting planes:
  Gomory: 13
  Cover: 24
  Clique: 4
  MIR: 79
  StrongCG: 84
  Flow cover: 9
  Zero half: 2

Explored 3300 nodes (90473 simplex iterations) in 3.26 seconds
Thread count was 12 (of 12 available processors)

Solution count 10: 12682 12644 12546 ... 11127

Optimal solution found (tolerance 1.00e-12)
Best objective 1.268200000000e+04, best bound 1.268200000000e+04, gap 0.0000%
